120 150
1 42
2 69
3 67 12 16 37 40 49 63 64 68 70 71 76 97 99 102
4 57
5 93
6 90
7 38
8 36
9 45 12 16 26 31 37 40 42 46 48 49 55 61 62 63 64 67 68 70 71 76 78 82 86 91 93 97 99 102 105 108
10 42 37 63 70
11 33
12 79 16 20 24 26 28 31 37 40 42 46 48 49 51 53 54 55 61 62 63 64 67 68 70 71 76 78 80 82 86 91 92 93 97 99 102 104 105 108
13 27
14 57
15 44
16 84 26 31 37 40 42 46 48 49 53 55 61 62 63 64 67 68 70 71 76 78 80 82 86 91 93 97 99 102 104 105 108
17 86
18 92
19 46
20 38 37 40 63 70 102
21 85
22 33 63 70
23 82
24 73 37 40 63 64 70 76 102
25 49
26 70 37 40 48 49 63 64 68 70 71 76 97 99 102
27 59
28 23 37 40 63 64 70 76 97 99 102
29 57
30 72
31 74 37 40 42 46 48 49 55 62 63 64 68 70 71 76 78 86 91 93 97 99 102 108
32 69
33 33
34 42 63
35 28
36 46
37 30 40 42 46 48 49 51 53 54 55 61 62 63 64 67 68 70 71 76 78 80 82 86 91 92 93 97 99 102 104 105 108
38 64
39 29
40 74 42 46 48 49 51 53 54 55 61 62 63 64 67 68 70 71 76 78 80 82 86 91 92 93 97 99 102 104 105 108
41 41
42 49 46 48 49 55 62 63 64 68 70 71 76 78 86 91 93 97 99 102 108
43 55
44 98
45 80
46 32 48 49 55 62 63 64 68 70 71 76 78 86 91 93 97 99 102 108
47 25
48 38 49 55 61 62 63 64 67 68 70 71 76 78 82 86 91 93 97 99 102 105 108
49 82 53 55 61 62 63 64 67 68 70 71 76 78 82 86 91 93 97 99 102 104 105 108
50 30
51 35 63 64 70 76 102
52 39
53 57 63 64 70 71 76 97 99 102
54 84 63 64 70 102
55 62 61 62 63 64 67 68 70 71 76 78 82 86 91 93 97 99 102 105 108
56 50
57 55
58 27
59 30
60 36
61 20 62 63 64 68 70 71 76 97 99 102
62 78 63 64 67 68 70 71 76 78 82 86 91 93 97 99 102 105 108
63 47 64 67 68 70 71 76 78 80 82 86 91 92 93 97 99 102 104 105 108 120
64 26 67 68 70 71 76 78 80 82 86 91 92 93 97 99 102 104 105 108
65 45
66 41
67 58 68 70 71 76 86 93 97 99 102
68 98 70 71 76 78 82 86 91 93 97 99 102 105 108
69 91
70 96 71 76 78 80 82 86 91 92 93 97 99 102 104 105 108 120
71 73 76 78 82 86 91 93 97 99 102 105 108
72 84
73 37
74 93
75 91
76 43 78 80 82 86 91 93 97 99 102 104 105 108
77 73
78 85 86 91 93 97 99 102
79 81
80 79 97 99 102
81 71
82 80 86 97 99 102
83 76
84 83
85 41
86 78 91 93 97 99 102 105 108
87 70
88 23
89 42
90 87
91 43 93 97 99 102 108
92 84 102
93 60 97 99 102 108
94 55
95 49
96 78
97 73 99 102 104 105 108
98 62
99 36 102 104 105 108
100 44
101 94
102 69 104 105 108
103 32
104 96
105 70
106 84
107 58
108 78
109 25
110 80
111 58
112 66
113 83
114 24
115 98
116 60
117 42
118 43
119 43
120 39
